c This is QMaxSAT 2017 based on 14.07
c This is Glucose 3.0
c This is MiniSat 2.2.0
c WARNING: for repeatability, setting FPU to use double precision
c card = mrwto, comp = 0, pmodel = 0, narr = 20, mct = 76, verb = 0
cr firstCPXsol 0 0 0
c top = 189219
c |  Number of variables:    18050                                            |
c |  Number of clauses:      1463815                                          |
c |  Weight of hard clauses: 189219                                           |
c |  Number of soft clauses: 171000                                           |
c |  Number of unit soft clauses: 0                                           |
c |  Maximum Cardinality (by unit): 5582520      (0           )               |
c last restart ## conflicts  :  0 4793 
o 613 | cpuTime 0.879285 s
c Sum of weights = 279126
c A number of soft clauses remained = 8550
c MRWTO encoding for Pseudo-Boolean Constraints
c sizeMax=613
c No.0 Divisor=9	generated by pow1
c No.1 Divisor=9	generated by pow1
c No.2 Divisor=9	generated by pow1
c p0= 9	p1= 9	p2= 9	
c number of digits = 4
c linkingVar[0].size = 9, linkingVar[1].size = 9, linkingVar[2].size = 8, linkingVar[3].size = 1, 
c Pseudo-Boolean Constraints: 145365 variables and 1081559 clauses
c Sum of weights = 279126
c A number of soft clauses remained = 8550
c MRWTO encoding for Pseudo-Boolean Constraints
c sizeMax=613
c No.0 Divisor=9	generated by pow1
c No.1 Divisor=9	generated by pow1
c No.2 Divisor=9	generated by pow1
c p0= 9	p1= 9	p2= 9	
c number of digits = 4
c linkingVar[0].size = 9, linkingVar[1].size = 9, linkingVar[2].size = 8, linkingVar[3].size = 1, 
c Pseudo-Boolean Constraints: 145365 variables and 1081559 clauses
c Sum of weights = 279126
c A number of soft clauses remained = 8550
c MRWTO encoding for Pseudo-Boolean Constraints
c sizeMax=613
c No.0 Divisor=9	generated by pow1
c No.1 Divisor=9	generated by pow1
c No.2 Divisor=9	generated by pow1
c p0= 9	p1= 9	p2= 9	
c number of digits = 4
c linkingVar[0].size = 9, linkingVar[1].size = 9, linkingVar[2].size = 8, linkingVar[3].size = 1, 
c Pseudo-Boolean Constraints: 145365 variables and 1081559 clauses
c Sum of weights = 279126
c A number of soft clauses remained = 8550
c MRWTO encoding for Pseudo-Boolean Constraints
c sizeMax=613
c No.0 Divisor=9	generated by pow1
c No.1 Divisor=9	generated by pow1
c No.2 Divisor=9	generated by pow1
c p0= 9	p1= 9	p2= 9	
c number of digits = 4
c linkingVar[0].size = 9, linkingVar[1].size = 9, linkingVar[2].size = 8, linkingVar[3].size = 1, 
c Pseudo-Boolean Constraints: 145365 variables and 1081559 clauses
c Sum of weights = 279126
c A number of soft clauses remained = 8550
c MRWTO encoding for Pseudo-Boolean Constraints
c sizeMax=613
c No.0 Divisor=9	generated by pow1
c No.1 Divisor=9	generated by pow1
c No.2 Divisor=9	generated by pow1
c p0= 9	p1= 9	p2= 9	
c number of digits = 4
c linkingVar[0].size = 9, linkingVar[1].size = 9, linkingVar[2].size = 8, linkingVar[3].size = 1, 
c Pseudo-Boolean Constraints: 145365 variables and 1081559 clauses
c Sum of weights = 279126
c A number of soft clauses remained = 8550
c MRWTO encoding for Pseudo-Boolean Constraints
c sizeMax=613
c No.0 Divisor=9	generated by pow1
c No.1 Divisor=9	generated by pow1
c No.2 Divisor=9	generated by pow1
c p0= 9	p1= 9	p2= 9	
c number of digits = 4
c linkingVar[0].size = 9, linkingVar[1].size = 9, linkingVar[2].size = 8, linkingVar[3].size = 1, 
c Pseudo-Boolean Constraints: 145365 variables and 1081559 clauses
c Sum of weights = 279126
c A number of soft clauses remained = 8550
c MRWTO encoding for Pseudo-Boolean Constraints
c sizeMax=613
c No.0 Divisor=9	generated by pow1
c No.1 Divisor=9	generated by pow1
c No.2 Divisor=9	generated by pow1
c p0= 9	p1= 9	p2= 9	
c number of digits = 4
c linkingVar[0].size = 9, linkingVar[1].size = 9, linkingVar[2].size = 8, linkingVar[3].size = 1, 
c Pseudo-Boolean Constraints: 145365 variables and 1081559 clauses
c Sum of weights = 279126
c A number of soft clauses remained = 8550
c MRWTO encoding for Pseudo-Boolean Constraints
c sizeMax=613
c No.0 Divisor=9	generated by pow1
c No.1 Divisor=9	generated by pow1
c No.2 Divisor=9	generated by pow1
c p0= 9	p1= 9	p2= 9	
c number of digits = 4
c linkingVar[0].size = 9, linkingVar[1].size = 9, linkingVar[2].size = 8, linkingVar[3].size = 1, 
c Pseudo-Boolean Constraints: 145365 variables and 1081559 clauses
c Sum of weights = 279126
c A number of soft clauses remained = 8550
c MRWTO encoding for Pseudo-Boolean Constraints
c sizeMax=613
c No.0 Divisor=9	generated by pow1
c No.1 Divisor=9	generated by pow1
c No.2 Divisor=9	generated by pow1
c p0= 9	p1= 9	p2= 9	
c number of digits = 4
c linkingVar[0].size = 9, linkingVar[1].size = 9, linkingVar[2].size = 8, linkingVar[3].size = 1, 
c Pseudo-Boolean Constraints: 145365 variables and 1081559 clauses
c Sum of weights = 279126
c A number of soft clauses remained = 8550
c MRWTO encoding for Pseudo-Boolean Constraints
c sizeMax=613
c No.0 Divisor=9	generated by pow1
c No.1 Divisor=9	generated by pow1
c No.2 Divisor=9	generated by pow1
c p0= 9	p1= 9	p2= 9	
c number of digits = 4
c linkingVar[0].size = 9, linkingVar[1].size = 9, linkingVar[2].size = 8, linkingVar[3].size = 1, 
c Pseudo-Boolean Constraints: 145365 variables and 1081559 clauses
c Sum of weights = 279126
c A number of soft clauses remained = 8550
c MRWTO encoding for Pseudo-Boolean Constraints
c sizeMax=613
c No.0 Divisor=9	generated by pow1
c No.1 Divisor=9	generated by pow1
c No.2 Divisor=9	generated by pow1
c p0= 9	p1= 9	p2= 9	
c number of digits = 4
c linkingVar[0].size = 9, linkingVar[1].size = 9, linkingVar[2].size = 8, linkingVar[3].size = 1, 
c Pseudo-Boolean Constraints: 145365 variables and 1081559 clauses
c Sum of weights = 279126
c A number of soft clauses remained = 8550
c MRWTO encoding for Pseudo-Boolean Constraints
c sizeMax=613
c No.0 Divisor=9	generated by pow1
c No.1 Divisor=9	generated by pow1
c No.2 Divisor=9	generated by pow1
c p0= 9	p1= 9	p2= 9	
c number of digits = 4
c linkingVar[0].size = 9, linkingVar[1].size = 9, linkingVar[2].size = 8, linkingVar[3].size = 1, 
c Pseudo-Boolean Constraints: 145365 variables and 1081559 clauses
c Sum of weights = 279126
c A number of soft clauses remained = 8550
c MRWTO encoding for Pseudo-Boolean Constraints
c sizeMax=613
c No.0 Divisor=9	generated by pow1
c No.1 Divisor=9	generated by pow1
c No.2 Divisor=9	generated by pow1
c p0= 9	p1= 9	p2= 9	
c number of digits = 4
c linkingVar[0].size = 9, linkingVar[1].size = 9, linkingVar[2].size = 8, linkingVar[3].size = 1, 
c Pseudo-Boolean Constraints: 145365 variables and 1081559 clauses
c Sum of weights = 279126
c A number of soft clauses remained = 8550
c MRWTO encoding for Pseudo-Boolean Constraints
c sizeMax=613
c No.0 Divisor=9	generated by pow1
c No.1 Divisor=9	generated by pow1
c No.2 Divisor=9	generated by pow1
c p0= 9	p1= 9	p2= 9	
c number of digits = 4
c linkingVar[0].size = 9, linkingVar[1].size = 9, linkingVar[2].size = 8, linkingVar[3].size = 1, 
c Pseudo-Boolean Constraints: 145365 variables and 1081559 clauses
c Sum of weights = 279126
c A number of soft clauses remained = 8550
c MRWTO encoding for Pseudo-Boolean Constraints
c sizeMax=613
c No.0 Divisor=9	generated by pow1
c No.1 Divisor=9	generated by pow1
c No.2 Divisor=9	generated by pow1
c p0= 9	p1= 9	p2= 9	
c number of digits = 4
c linkingVar[0].size = 9, linkingVar[1].size = 9, linkingVar[2].size = 8, linkingVar[3].size = 1, 
c Pseudo-Boolean Constraints: 145365 variables and 1081559 clauses
c Sum of weights = 279126
c A number of soft clauses remained = 8550
c MRWTO encoding for Pseudo-Boolean Constraints
c sizeMax=613
c No.0 Divisor=9	generated by pow1
c No.1 Divisor=9	generated by pow1
c No.2 Divisor=9	generated by pow1
c p0= 9	p1= 9	p2= 9	
c number of digits = 4
c linkingVar[0].size = 9, linkingVar[1].size = 9, linkingVar[2].size = 8, linkingVar[3].size = 1, 
c Pseudo-Boolean Constraints: 145365 variables and 1081559 clauses
c Sum of weights = 279126
c A number of soft clauses remained = 8550
c MRWTO encoding for Pseudo-Boolean Constraints
c sizeMax=613
c No.0 Divisor=9	generated by pow1
c No.1 Divisor=9	generated by pow1
c No.2 Divisor=9	generated by pow1
c p0= 9	p1= 9	p2= 9	
c number of digits = 4
c linkingVar[0].size = 9, linkingVar[1].size = 9, linkingVar[2].size = 8, linkingVar[3].size = 1, 
c Pseudo-Boolean Constraints: 145365 variables and 1081559 clauses
c Sum of weights = 279126
c A number of soft clauses remained = 8550
c MRWTO encoding for Pseudo-Boolean Constraints
c sizeMax=613
c No.0 Divisor=9	generated by pow1
c No.1 Divisor=9	generated by pow1
c No.2 Divisor=9	generated by pow1
c p0= 9	p1= 9	p2= 9	
c number of digits = 4
c linkingVar[0].size = 9, linkingVar[1].size = 9, linkingVar[2].size = 8, linkingVar[3].size = 1, 
c Pseudo-Boolean Constraints: 145365 variables and 1081559 clauses
c Sum of weights = 279126
c A number of soft clauses remained = 8550
c MRWTO encoding for Pseudo-Boolean Constraints
c sizeMax=613
c No.0 Divisor=9	generated by pow1
c No.1 Divisor=9	generated by pow1
c No.2 Divisor=9	generated by pow1
c p0= 9	p1= 9	p2= 9	
c number of digits = 4
c linkingVar[0].size = 9, linkingVar[1].size = 9, linkingVar[2].size = 8, linkingVar[3].size = 1, 
c Pseudo-Boolean Constraints: 145365 variables and 1081559 clauses
c Sum of weights = 279126
c A number of soft clauses remained = 8550
c MRWTO encoding for Pseudo-Boolean Constraints
c sizeMax=613
c No.0 Divisor=9	generated by pow1
c No.1 Divisor=9	generated by pow1
c No.2 Divisor=9	generated by pow1
c p0= 9	p1= 9	p2= 9	
c number of digits = 4
c linkingVar[0].size = 9, linkingVar[1].size = 9, linkingVar[2].size = 8, linkingVar[3].size = 1, 
c Pseudo-Boolean Constraints: 145365 variables and 1081559 clauses
c last restart ## conflicts  :  145 34429 
o 374 | cpuTime 8.21081 s
c last restart ## conflicts  :  884 39616 
o 355 | cpuTime 19.8432 s
c last restart ## conflicts  :  432 44585 
o 298 | cpuTime 33.9571 s
c last restart ## conflicts  :  760 35155 
o 296 | cpuTime 69.1129 s
c last restart ## conflicts  :  1060 25093 
o 283 | cpuTime 78.5161 s
c last restart ## conflicts  :  1002 20564 
o 279 | cpuTime 97.3349 s
c last restart ## conflicts  :  411 53208 
o 244 | cpuTime 158.79 s
c last restart ## conflicts  :  736 18739 
o 243 | cpuTime 244.107 s
c last restart ## conflicts  :  220 30858 
o 222 | cpuTime 578.955 s
c last restart ## conflicts  :  198 28895 
o 209 | cpuTime 1409.62 s
c last restart ## conflicts  :  231 63101 
o 195 | cpuTime 2237.99 s
c last restart ## conflicts  :  448 47151 
o 184 | cpuTime 2647.53 s
s UNKNOWN
c Search is stopped by a limit (maybe time-limit)
cr positiVarArr: [ | 61(1->42) | 161(1->47) | 218(1->9) | 374(1->70) | 448(1->49) | 555(1->61) | 634(1->45) | 707(1->23) | 790(1->11) | 938(1->64) | 1006(1->37) | 1133(1->69) | 1179(1->20) | 1294(1->40) | 1366(1->17) | 1499(1->55) | 1597(1->58) | 1640(1->6) | 1772(1->43) | 1884(1->60) | 1905(2->1) | 2058(3->44) | 2138(4->29) | 2234(5->30) | 2367(6->68) | 2391(7->1) | 2546(8->57) | 2596(9->12) | 2744(10->65) | 2827(11->53) | 2941(12->72) | 2966(13->2) | 3093(14->34) | 3186(15->32) | 3238(16->1) | 3362(17->18) | 3455(18->16) | 3601(19->67) | 3657(20->28) | 3746(21->22) | 3809(22->1) | 3921(23->7) | 4059(24->50) | 4135(25->31) | 4207(26->8) | 4298(27->4) | 4372(28->1) | 4530(29->46) | 4606(30->27) | 4656(31->1) | 4790(32->21) | 4848(33->1) | 5022(34->63) | 5092(35->38) | 5136(36->1) | 5239(37->1) | 5338(38->1) | 5459(39->25) | 5583(40->54) | 5686(41->62) | 5743(42->24) | 5805(43->1) | 5957(44->48) | 6019(45->15) | 6095(46->1) | 6227(47->33) | 6283(48->1) | 6436(49->52) | 6464(50->1) | 6600(51->26) | 6704(52->35) | 6778(53->14) | 6862(54->3) | 7020(55->66) | 7088(56->39) | 7132(57->1) | 7244(58->5) | 7353(59->19) | 7500(60->71) | 7598(61->74) | 7692(62->73) | 7714(63->1) | 7865(64->56) | 7902(65->1) | 8009(66->10) | 8169(67->75) | 8248(68->59) | 8297(69->13) | 8415(70->36) | 8466(71->1) | 8620(72->51) | 8657(73->1) | 8760(74->1) | 8930(75->76) | 8990(76->41) | ]
cr the 1-th chain: [ 1->42->24->50->1 ] (#non-depot=3) {#cumul.=4}
cr the 2-th chain: [ 1->47->33->1 ] (#non-depot=2) {#cumul.=6}
cr the 3-th chain: [ 1->9->12->72->51->26->8->57->1 ] (#non-depot=7) {#cumul.=13}
cr the 4-th chain: [ 1->70->36->1 ] (#non-depot=2) {#cumul.=15}
cr the 5-th chain: [ 1->49->52->35->38->1 ] (#non-depot=4) {#cumul.=19}
cr the 6-th chain: [ 1->61->74->1 ] (#non-depot=2) {#cumul.=21}
cr the 7-th chain: [ 1->45->15->32->21->22->1 ] (#non-depot=5) {#cumul.=26}
cr the 8-th chain: [ 1->23->7->1 ] (#non-depot=2) {#cumul.=28}
cr the 9-th chain: [ 1->11->53->14->34->63->1 ] (#non-depot=5) {#cumul.=33}
cr the 10-th chain: [ 1->64->56->39->25->31->1 ] (#non-depot=5) {#cumul.=38}
cr the 11-th chain: [ 1->37->1 ] (#non-depot=1) {#cumul.=39}
cr the 12-th chain: [ 1->69->13->2->1 ] (#non-depot=3) {#cumul.=42}
cr the 13-th chain: [ 1->20->28->1 ] (#non-depot=2) {#cumul.=44}
cr the 14-th chain: [ 1->40->54->3->44->48->1 ] (#non-depot=5) {#cumul.=49}
cr the 15-th chain: [ 1->17->18->16->1 ] (#non-depot=3) {#cumul.=52}
cr the 16-th chain: [ 1->55->66->10->65->1 ] (#non-depot=4) {#cumul.=56}
cr the 17-th chain: [ 1->58->5->30->27->4->29->46->1 ] (#non-depot=7) {#cumul.=63}
cr the 18-th chain: [ 1->6->68->59->19->67->75->76->41->62->73->1 ] (#non-depot=10) {#cumul.=73}
cr the 19-th chain: [ 1->43->1 ] (#non-depot=1) {#cumul.=74}
cr the 20-th chain: [ 1->60->71->1 ] (#non-depot=2) {#cumul.=76}
c Latest Answer = 0 by 13 loops
c restarts              : 22344
c conflicts             : 3468014        (964 /sec)
c decisions             : 147732637      (0.00 % random) (41080 /sec)
c propagations          : 37016894565    (10293276 /sec)
c conflict literals     : 565144080      (32.26 % deleted)
c Memory used           : 2554.00 MB
c CPU time              : 3596.22 s
